Traveling Salesman Problem/TSP_generados/Aleatorio1621103244_6.tsp
NAME: Aleatorio1621103244_6.tsp
COMMENT: Randomly generated scenario
TYPE: TSP
DIMENSION: 6
EDGE_WEIGHT_TYPE: ATT
NODE_COORD_SECTION
1 40.44 14.22
2 18.51 3.11
3 31.2 28.69
4 3.01 12.16
5 19.23 39.96
6 43.38 20.54
