Traveling Salesman Problem/TSP_generados/Aleatorio1621103244_6.opt.tour
NAME: Aleatorio1621103244_6.opt.tour
COMMENT: Optimal solution for Aleatorio1621103244_6 (112.7843028700144)
TYPE: TOUR
DIMENSION: 6
TOUR_SECTION
1 6 3 5 4 2
-1
EOF
